NAME: random-71-26117
TYPE: TSP
COMMENT: size=71 seed=26117
DIMENSION: 144
EDGE_WEIGHT_TYPE: EUC_2D
NODE_COORD_SECTION
+0 419 688
-0 419 688
+1 452 278
-1 132 63
+2 564 36
-2 775 750
+3 370 320
-3 267 253
+4 643 246
-4 869 589
+5 210 181
-5 799 269
+6 467 794
-6 136 60
+7 464 331
-7 571 460
+8 366 606
-8 842 977
+9 809 948
-9 89 30
+10 342 957
-10 150 587
+11 40 159
-11 764 712
+12 764 910
-12 471 929
+13 613 635
-13 2 174
+14 726 664
-14 995 744
+15 452 50
-15 732 4
+16 821 854
-16 659 993
+17 132 39
-17 694 73
+18 603 219
-18 960 775
+19 346 436
-19 189 868
+20 315 720
-20 735 557
+21 117 488
-21 416 853
+22 773 584
-22 766 391
+23 36 159
-23 598 404
+24 758 310
-24 895 192
+25 913 609
-25 760 797
+26 971 823
-26 177 88
+27 572 122
-27 956 706
+28 17 314
-28 902 689
+29 330 951
-29 354 522
+30 148 532
-30 32 396
+31 668 170
-31 956 555
+32 274 983
-32 459 942
+33 472 966
-33 567 535
+34 318 413
-34 762 716
+35 113 283
-35 318 426
+36 112 705
-36 39 252
+37 347 276
-37 731 766
+38 838 924
-38 79 293
+39 890 744
-39 840 211
+40 7 228
-40 72 814
+41 419 795
-41 454 25
+42 807 226
-42 820 988
+43 142 654
-43 563 3
+44 327 987
-44 800 322
+45 229 25
-45 655 259
+46 606 258
-46 76 59
+47 687 639
-47 219 798
+48 35 311
-48 345 894
+49 552 612
-49 412 698
+50 430 182
-50 399 210
+51 860 623
-51 302 416
+52 726 438
-52 587 228
+53 201 44
-53 260 257
+54 472 665
-54 0 919
+55 615 539
-55 715 598
+56 835 820
-56 519 716
+57 535 684
-57 766 652
+58 716 283
-58 968 480
+59 656 499
-59 66 646
+60 326 87
-60 165 853
+61 879 706
-61 921 519
+62 631 968
-62 43 412
+63 77 884
-63 422 210
+64 623 749
-64 207 570
+65 465 654
-65 610 362
+66 102 117
-66 823 101
+67 530 127
-67 140 116
+68 293 895
-68 169 403
+69 833 984
-69 999 807
+70 137 339
-70 995 936
+71 637 601
-71 255 99
PRECEDENCE_SECTION
+0 -0
+1 -1
+2 -2
+3 -3
+4 -4
+5 -5
+6 -6
+7 -7
+8 -8
+9 -9
+10 -10
+11 -11
+12 -12
+13 -13
+14 -14
+15 -15
+16 -16
+17 -17
+18 -18
+19 -19
+20 -20
+21 -21
+22 -22
+23 -23
+24 -24
+25 -25
+26 -26
+27 -27
+28 -28
+29 -29
+30 -30
+31 -31
+32 -32
+33 -33
+34 -34
+35 -35
+36 -36
+37 -37
+38 -38
+39 -39
+40 -40
+41 -41
+42 -42
+43 -43
+44 -44
+45 -45
+46 -46
+47 -47
+48 -48
+49 -49
+50 -50
+51 -51
+52 -52
+53 -53
+54 -54
+55 -55
+56 -56
+57 -57
+58 -58
+59 -59
+60 -60
+61 -61
+62 -62
+63 -63
+64 -64
+65 -65
+66 -66
+67 -67
+68 -68
+69 -69
+70 -70
+71 -71
EOF
